(set-info :smt-lib-version 2.6)
(set-logic QF_S)
(set-info :source |
Generated by: Hung-En Wang, Tzung-Lin Tsai, Chun-Han Lin, Fang Yu, and Jie-Hong R. Jiang
Generated on: 2019-02-28
Generator: Stranger
Application: Security analysis of string manipulating web applications
Target solver: CVC4, Norn, Z3-str2
Publication:
Hung-En Wang, Tzung-Lin Tsai, Chun-Han Lin, Fang Yu, Jie-Hong R. Jiang:
String Analysis via Automata Manipulation with Logic Circuit Representation. CAV (1) 2016: 241-260.
|)
(set-info :license "https://creativecommons.org/licenses/by/4.0/")
(set-info :category "industrial")
(set-info :status unknown)

(declare-fun sigmaStar_10 () String)
(declare-fun sigmaStar_13 () String)
(declare-fun sigmaStar_14 () String)
(declare-fun sigmaStar_16 () String)
(declare-fun sigmaStar_18 () String)
(declare-fun sigmaStar_20 () String)
(declare-fun sigmaStar_24 () String)
(declare-fun sigmaStar_25 () String)
(declare-fun literal_27 () String)
(declare-fun x_28 () String)
(declare-fun literal_29 () String)
(declare-fun x_30 () String)
(declare-fun literal_33 () String)
(declare-fun x_35 () String)
(declare-fun literal_39 () String)
(declare-fun x_40 () String)
(declare-fun literal_41 () String)
(declare-fun x_42 () String)
(declare-fun literal_43 () String)
(declare-fun x_44 () String)
(declare-fun literal_45 () String)
(declare-fun x_46 () String)
(declare-fun literal_47 () String)
(declare-fun x_48 () String)
(declare-fun literal_49 () String)
(declare-fun x_50 () String)
(assert (= literal_27 "\u{3f}\u{3d}\u{26}\u{3d}\u{26}\u{3d}\u{26}\u{3d}\u{26}\u{3d}"))
(assert (= x_28 (str.++ literal_27 sigmaStar_25)))
(assert (= literal_29 "\u{26}"))
(assert (= x_30 (str.++ x_28 literal_29)))
(assert (= literal_33 "\u{3d}"))
(assert (= x_35 (str.++ x_30 literal_33)))
(assert (= literal_39 "\u{3c}\u{74}\u{61}\u{62}\u{6c}\u{65}\u{20}\u{77}\u{69}\u{64}\u{74}\u{68}\u{3d}\u{22}\u{31}\u{30}\u{30}\u{25}\u{22}\u{20}\u{68}\u{65}\u{69}\u{67}\u{68}\u{74}\u{3d}\u{22}\u{36}\u{30}\u{30}\u{22}\u{20}\u{63}\u{6c}\u{61}\u{73}\u{73}\u{3d}\u{22}\u{73}\u{65}\u{63}\u{74}\u{69}\u{6f}\u{6e}\u{22}\u{3e}\u{3c}\u{74}\u{72}\u{3e}\u{3c}\u{74}\u{64}\u{20}\u{63}\u{6c}\u{61}\u{73}\u{73}\u{3d}\u{22}\u{61}\u{63}\u{74}\u{69}\u{76}\u{69}\u{74}\u{79}\u{20}\u{66}\u{6f}\u{72}\u{75}\u{6d}\u{22}\u{3e}\u{3c}\u{69}\u{66}\u{72}\u{61}\u{6d}\u{65}\u{20}\u{6e}\u{61}\u{6d}\u{65}\u{3d}\u{22}\u{69}\u{66}\u{72}\u{61}\u{6d}\u{65}\u{22}\u{20}\u{69}\u{64}\u{3d}\u{22}\u{69}\u{66}\u{72}\u{61}\u{6d}\u{65}\u{22}\u{20}\u{73}\u{72}\u{63}\u{3d}\u{22}"))
(assert (= x_40 (str.++ literal_39 x_35)))
(assert (= literal_41 "\u{22}\u{20}\u{20}\u{77}\u{69}\u{64}\u{74}\u{68}\u{3d}\u{22}\u{31}\u{30}\u{30}\u{25}\u{22}\u{20}\u{68}\u{65}\u{69}\u{67}\u{68}\u{74}\u{3d}\u{22}\u{31}\u{30}\u{30}\u{25}\u{22}\u{20}\u{66}\u{72}\u{61}\u{6d}\u{65}\u{62}\u{6f}\u{72}\u{64}\u{65}\u{72}\u{3d}\u{22}\u{31}\u{22}\u{3e}"))
(assert (= x_42 (str.++ x_40 literal_41)))
(assert (= literal_43 "\u{3c}\u{2f}\u{69}\u{66}\u{72}\u{61}\u{6d}\u{65}\u{3e}"))
(assert (= x_44 (str.++ x_42 literal_43)))
(assert (= literal_45 "\u{3c}\u{2f}\u{74}\u{64}\u{3e}"))
(assert (= x_46 (str.++ x_44 literal_45)))
(assert (= literal_47 "\u{3c}\u{2f}\u{74}\u{72}\u{3e}"))
(assert (= x_48 (str.++ x_46 literal_47)))
(assert (= literal_49 "\u{3c}\u{2f}\u{74}\u{61}\u{62}\u{6c}\u{65}\u{3e}"))
(assert (= x_50 (str.++ x_48 literal_49)))
(assert (str.in_re x_50 (re.++ (re.* re.allchar) (re.++ (str.to_re "\u{5c}\u{3c}\u{53}\u{43}\u{52}\u{49}\u{50}\u{54}") (re.* re.allchar)))))
(check-sat)
(exit)
